NAME: tsp15_28
COMMENT: 15-tsp problem (Padberg/Rinaldi)
TYPE: TSP
DIMENSION: 15
EDGE_WEIGHT_TYPE : EUC_2D
NODE_COORD_SECTION
1 2 29
2 16 6
3 26 37
4 7 7
5 28 34
6 9 19
7 26 30
8 13 14
9 5 37
10 38 27
11 14 0
12 23 9
13 33 28
14 26 28
15 33 29
